10
16
0 1 19 4
0 2 15 2
0 3 9 6
0 4 11 7
0 5 18 1
0 6 10 3
0 7 7 7
0 8 13 2
0 9 10 4
1 2 12 1
1 3 10 6
1 4 8 5
1 5 14 1
1 6 12 4
1 7 11 6
1 8 15 3
1 9 7 5
2 3 10 6
2 4 13 3
2 5 13 0
2 6 18 0
2 7 11 7
2 8 10 2
2 9 12 4
3 4 15 3
3 5 7 6
3 6 13 4
3 7 8 5
3 8 5 5
3 9 5 3
4 5 10 4
4 6 12 3
4 7 11 3
4 8 5 3
4 9 9 5
5 6 10 0
5 7 6 4
5 8 15 0
5 9 9 6
6 7 11 5
6 8 16 1
6 9 5 3
7 8 5 3
7 9 19 2
8 9 5 4
